p cnf 845 1993
1 0
2 0
3 0
4 0
5 0
6 0
7 0
8 0
9 0
10 0
11 0
12 0
13 0
14 0
15 0
16 0
17 0
18 0
19 0
20 0
21 0
22 0
23 0
24 0
25 0
-26 0
-27 0
-28 0
-29 0
-30 0
-31 0
-32 0
-33 0
-34 0
-35 0
-36 0
-37 0
-38 0
-39 0
-40 0
-41 0
-42 0
-43 0
-44 0
-45 0
-46 0
-47 0
-48 0
-49 0
-50 0
1 -51 0
51 -1 0
2 -52 0
52 -2 0
3 -53 0
53 -3 0
4 -54 0
54 -4 0
5 -55 0
55 -5 0
6 -56 0
56 -6 0
7 -57 0
57 -7 0
8 -58 0
58 -8 0
9 -59 0
59 -9 0
10 -60 0
60 -10 0
11 -61 0
61 -11 0
12 -62 0
62 -12 0
13 -63 0
63 -13 0
14 -64 0
64 -14 0
15 -65 0
65 -15 0
16 -66 0
66 -16 0
17 -67 0
67 -17 0
18 -68 0
68 -18 0
19 -69 0
69 -19 0
20 -70 0
70 -20 0
21 -71 0
71 -21 0
22 -72 0
72 -22 0
23 -73 0
73 -23 0
24 -74 0
74 -24 0
25 -75 0
75 -25 0
76 77 0
78 77 0
79 77 0
-76 -78 -79 -77 0
-26 -80 77 0
26 -80 -77 0
80 -77 -26 0
26 77 80 0
-80 0
78 81 0
79 81 0
-78 -79 -81 0
-82 81 -83 0
82 -81 -83 0
83 -81 -82 0
82 81 83 0
-83 0
-84 81 -85 0
84 -81 -85 0
85 -81 -84 0
84 81 85 0
-85 0
86 87 0
88 87 0
89 87 0
90 87 0
91 87 0
-92 0
-27 87 -93 0
27 -87 -93 0
93 -87 -27 0
27 87 93 0
-93 0
88 94 0
89 94 0
90 94 0
91 94 0
-95 0
-96 94 -97 0
96 -94 -97 0
97 -94 -96 0
96 94 97 0
-97 0
89 98 0
90 98 0
91 98 0
-89 -90 -91 -98 0
-99 98 -100 0
99 -98 -100 0
100 -98 -99 0
99 98 100 0
-100 0
90 101 0
91 101 0
-90 -91 -101 0
-102 101 -103 0
102 -101 -103 0
103 -101 -102 0
102 101 103 0
-103 0
-104 101 -105 0
104 -101 -105 0
105 -101 -104 0
104 101 105 0
-105 0
106 107 0
108 107 0
109 107 0
110 107 0
111 107 0
112 107 0
-113 0
-28 107 -114 0
28 -107 -114 0
114 -107 -28 0
28 107 114 0
-114 0
108 115 0
109 115 0
110 115 0
111 115 0
112 115 0
-116 0
-117 115 -118 0
117 -115 -118 0
118 -115 -117 0
117 115 118 0
-118 0
109 119 0
110 119 0
111 119 0
112 119 0
-120 0
-121 119 -122 0
121 -119 -122 0
122 -119 -121 0
121 119 122 0
-122 0
-123 119 -124 0
123 -119 -124 0
124 -119 -123 0
123 119 124 0
-124 0
-125 119 -126 0
125 -119 -126 0
126 -119 -125 0
125 119 126 0
-126 0
-127 119 -128 0
127 -119 -128 0
128 -119 -127 0
127 119 128 0
-128 0
129 130 0
131 130 0
132 130 0
133 130 0
134 130 0
135 130 0
-136 0
-29 130 -137 0
29 -130 -137 0
137 -130 -29 0
29 130 137 0
-137 0
131 138 0
132 138 0
133 138 0
134 138 0
135 138 0
-139 0
-140 138 -141 0
140 -138 -141 0
141 -138 -140 0
140 138 141 0
-141 0
132 142 0
133 142 0
134 142 0
135 142 0
-143 0
-144 142 -145 0
144 -142 -145 0
145 -142 -144 0
144 142 145 0
-145 0
-146 142 -147 0
146 -142 -147 0
147 -142 -146 0
146 142 147 0
-147 0
-148 142 -149 0
148 -142 -149 0
149 -142 -148 0
148 142 149 0
-149 0
-150 142 -151 0
150 -142 -151 0
151 -142 -150 0
150 142 151 0
-151 0
152 153 0
154 153 0
155 153 0
156 153 0
-157 0
-30 153 -158 0
30 -153 -158 0
158 -153 -30 0
30 153 158 0
-158 0
154 159 0
155 159 0
156 159 0
-154 -155 -156 -159 0
-160 159 -161 0
160 -159 -161 0
161 -159 -160 0
160 159 161 0
-161 0
155 162 0
156 162 0
-155 -156 -162 0
-163 162 -164 0
163 -162 -164 0
164 -162 -163 0
163 162 164 0
-164 0
165 -156 0
156 -165 0
166 167 0
168 167 0
169 167 0
170 167 0
171 167 0
172 167 0
-173 0
-31 167 -174 0
31 -167 -174 0
174 -167 -31 0
31 167 174 0
-174 0
168 175 0
169 175 0
170 175 0
171 175 0
172 175 0
-176 0
-177 175 -178 0
177 -175 -178 0
178 -175 -177 0
177 175 178 0
-178 0
169 179 0
170 179 0
171 179 0
172 179 0
-180 0
-181 179 -182 0
181 -179 -182 0
182 -179 -181 0
181 179 182 0
-182 0
170 183 0
171 183 0
172 183 0
-170 -171 -172 -183 0
-184 183 -185 0
184 -183 -185 0
185 -183 -184 0
184 183 185 0
-185 0
-186 183 -187 0
186 -183 -187 0
187 -183 -186 0
186 183 187 0
-187 0
-188 183 -189 0
188 -183 -189 0
189 -183 -188 0
188 183 189 0
-189 0
190 191 0
192 191 0
193 191 0
194 191 0
195 191 0
-196 0
-32 191 -197 0
32 -191 -197 0
197 -191 -32 0
32 191 197 0
-197 0
192 198 0
193 198 0
194 198 0
195 198 0
-199 0
-200 198 -201 0
200 -198 -201 0
201 -198 -200 0
200 198 201 0
-201 0
193 202 0
194 202 0
195 202 0
-193 -194 -195 -202 0
-203 202 -204 0
203 -202 -204 0
204 -202 -203 0
203 202 204 0
-204 0
194 205 0
195 205 0
-194 -195 -205 0
-206 205 -207 0
206 -205 -207 0
207 -205 -206 0
206 205 207 0
-207 0
208 -195 0
195 -208 0
209 210 0
211 210 0
212 210 0
213 210 0
214 210 0
215 210 0
-216 0
-33 210 -217 0
33 -210 -217 0
217 -210 -33 0
33 210 217 0
-217 0
211 218 0
212 218 0
213 218 0
214 218 0
215 218 0
-219 0
-220 218 -221 0
220 -218 -221 0
221 -218 -220 0
220 218 221 0
-221 0
212 222 0
213 222 0
214 222 0
215 222 0
-223 0
-224 222 -225 0
224 -222 -225 0
225 -222 -224 0
224 222 225 0
-225 0
213 226 0
214 226 0
215 226 0
-213 -214 -215 -226 0
-227 226 -228 0
227 -226 -228 0
228 -226 -227 0
227 226 228 0
-228 0
-229 226 -230 0
229 -226 -230 0
230 -226 -229 0
229 226 230 0
-230 0
-231 226 -232 0
231 -226 -232 0
232 -226 -231 0
231 226 232 0
-232 0
233 234 0
235 234 0
236 234 0
237 234 0
238 234 0
239 234 0
240 234 0
241 234 0
-242 0
-34 234 -243 0
34 -234 -243 0
243 -234 -34 0
34 234 243 0
-243 0
235 244 0
236 244 0
237 244 0
238 244 0
239 244 0
240 244 0
241 244 0
-245 0
-246 244 -247 0
246 -244 -247 0
247 -244 -246 0
246 244 247 0
-247 0
236 248 0
237 248 0
238 248 0
239 248 0
240 248 0
241 248 0
-249 0
-250 248 -251 0
250 -248 -251 0
251 -248 -250 0
250 248 251 0
-251 0
237 252 0
238 252 0
239 252 0
240 252 0
241 252 0
-253 0
-254 252 -255 0
254 -252 -255 0
255 -252 -254 0
254 252 255 0
-255 0
238 256 0
239 256 0
240 256 0
241 256 0
-257 0
-258 256 -259 0
258 -256 -259 0
259 -256 -258 0
258 256 259 0
-259 0
-260 256 -261 0
260 -256 -261 0
261 -256 -260 0
260 256 261 0
-261 0
-262 256 -263 0
262 -256 -263 0
263 -256 -262 0
262 256 263 0
-263 0
-264 256 -265 0
264 -256 -265 0
265 -256 -264 0
264 256 265 0
-265 0
266 267 0
268 267 0
269 267 0
270 267 0
271 267 0
-272 0
-35 267 -273 0
35 -267 -273 0
273 -267 -35 0
35 267 273 0
-273 0
268 274 0
269 274 0
270 274 0
271 274 0
-275 0
-276 274 -277 0
276 -274 -277 0
277 -274 -276 0
276 274 277 0
-277 0
269 278 0
270 278 0
271 278 0
-269 -270 -271 -278 0
-279 278 -280 0
279 -278 -280 0
280 -278 -279 0
279 278 280 0
-280 0
270 281 0
271 281 0
-270 -271 -281 0
-282 281 -283 0
282 -281 -283 0
283 -281 -282 0
282 281 283 0
-283 0
-284 281 -285 0
284 -281 -285 0
285 -281 -284 0
284 281 285 0
-285 0
286 287 0
288 287 0
-286 -288 -287 0
-36 287 -289 0
36 -287 -289 0
289 -287 -36 0
36 287 289 0
-289 0
-290 287 -291 0
290 -287 -291 0
291 -287 -290 0
290 287 291 0
-291 0
292 293 0
294 293 0
295 293 0
296 293 0
297 293 0
-298 0
-37 293 -299 0
37 -293 -299 0
299 -293 -37 0
37 293 299 0
-299 0
294 300 0
295 300 0
296 300 0
297 300 0
-301 0
-302 300 -303 0
302 -300 -303 0
303 -300 -302 0
302 300 303 0
-303 0
295 304 0
296 304 0
297 304 0
-295 -296 -297 -304 0
-305 304 -306 0
305 -304 -306 0
306 -304 -305 0
305 304 306 0
-306 0
-307 304 -308 0
307 -304 -308 0
308 -304 -307 0
307 304 308 0
-308 0
-309 304 -310 0
309 -304 -310 0
310 -304 -309 0
309 304 310 0
-310 0
311 312 0
313 312 0
314 312 0
315 312 0
316 312 0
317 312 0
-318 0
-38 312 -319 0
38 -312 -319 0
319 -312 -38 0
38 312 319 0
-319 0
313 320 0
314 320 0
315 320 0
316 320 0
317 320 0
-321 0
-322 320 -323 0
322 -320 -323 0
323 -320 -322 0
322 320 323 0
-323 0
314 324 0
315 324 0
316 324 0
317 324 0
-325 0
-326 324 -327 0
326 -324 -327 0
327 -324 -326 0
326 324 327 0
-327 0
315 328 0
316 328 0
317 328 0
-315 -316 -317 -328 0
-329 328 -330 0
329 -328 -330 0
330 -328 -329 0
329 328 330 0
-330 0
-331 328 -332 0
331 -328 -332 0
332 -328 -331 0
331 328 332 0
-332 0
-333 328 -334 0
333 -328 -334 0
334 -328 -333 0
333 328 334 0
-334 0
335 336 0
337 336 0
338 336 0
339 336 0
340 336 0
-341 0
-39 336 -342 0
39 -336 -342 0
342 -336 -39 0
39 336 342 0
-342 0
337 343 0
338 343 0
339 343 0
340 343 0
-344 0
-345 343 -346 0
345 -343 -346 0
346 -343 -345 0
345 343 346 0
-346 0
338 347 0
339 347 0
340 347 0
-338 -339 -340 -347 0
-348 347 -349 0
348 -347 -349 0
349 -347 -348 0
348 347 349 0
-349 0
339 350 0
340 350 0
-339 -340 -350 0
-351 350 -352 0
351 -350 -352 0
352 -350 -351 0
351 350 352 0
-352 0
-353 350 -354 0
353 -350 -354 0
354 -350 -353 0
353 350 354 0
-354 0
355 356 0
357 356 0
358 356 0
359 356 0
360 356 0
361 356 0
362 356 0
-363 0
-40 356 -364 0
40 -356 -364 0
364 -356 -40 0
40 356 364 0
-364 0
357 365 0
358 365 0
359 365 0
360 365 0
361 365 0
362 365 0
-366 0
-367 365 -368 0
367 -365 -368 0
368 -365 -367 0
367 365 368 0
-368 0
358 369 0
359 369 0
360 369 0
361 369 0
362 369 0
-370 0
-371 369 -372 0
371 -369 -372 0
372 -369 -371 0
371 369 372 0
-372 0
359 373 0
360 373 0
361 373 0
362 373 0
-374 0
-375 373 -376 0
375 -373 -376 0
376 -373 -375 0
375 373 376 0
-376 0
360 377 0
361 377 0
362 377 0
-360 -361 -362 -377 0
-378 377 -379 0
378 -377 -379 0
379 -377 -378 0
378 377 379 0
-379 0
-380 377 -381 0
380 -377 -381 0
381 -377 -380 0
380 377 381 0
-381 0
-382 377 -383 0
382 -377 -383 0
383 -377 -382 0
382 377 383 0
-383 0
384 385 0
386 385 0
387 385 0
388 385 0
389 385 0
390 385 0
391 385 0
392 385 0
-393 0
-41 385 -394 0
41 -385 -394 0
394 -385 -41 0
41 385 394 0
-394 0
386 395 0
387 395 0
388 395 0
389 395 0
390 395 0
391 395 0
392 395 0
-396 0
-397 395 -398 0
397 -395 -398 0
398 -395 -397 0
397 395 398 0
-398 0
387 399 0
388 399 0
389 399 0
390 399 0
391 399 0
392 399 0
-400 0
-401 399 -402 0
401 -399 -402 0
402 -399 -401 0
401 399 402 0
-402 0
388 403 0
389 403 0
390 403 0
391 403 0
392 403 0
-404 0
-405 403 -406 0
405 -403 -406 0
406 -403 -405 0
405 403 406 0
-406 0
389 407 0
390 407 0
391 407 0
392 407 0
-408 0
-409 407 -410 0
409 -407 -410 0
410 -407 -409 0
409 407 410 0
-410 0
-411 407 -412 0
411 -407 -412 0
412 -407 -411 0
411 407 412 0
-412 0
-413 407 -414 0
413 -407 -414 0
414 -407 -413 0
413 407 414 0
-414 0
-415 407 -416 0
415 -407 -416 0
416 -407 -415 0
415 407 416 0
-416 0
417 418 0
419 418 0
420 418 0
421 418 0
422 418 0
423 418 0
-424 0
-42 418 -425 0
42 -418 -425 0
425 -418 -42 0
42 418 425 0
-425 0
419 426 0
420 426 0
421 426 0
422 426 0
423 426 0
-427 0
-428 426 -429 0
428 -426 -429 0
429 -426 -428 0
428 426 429 0
-429 0
420 430 0
421 430 0
422 430 0
423 430 0
-431 0
-432 430 -433 0
432 -430 -433 0
433 -430 -432 0
432 430 433 0
-433 0
-434 430 -435 0
434 -430 -435 0
435 -430 -434 0
434 430 435 0
-435 0
-436 430 -437 0
436 -430 -437 0
437 -430 -436 0
436 430 437 0
-437 0
-438 430 -439 0
438 -430 -439 0
439 -430 -438 0
438 430 439 0
-439 0
440 441 0
442 441 0
443 441 0
444 441 0
445 441 0
446 441 0
-447 0
-43 441 -448 0
43 -441 -448 0
448 -441 -43 0
43 441 448 0
-448 0
442 449 0
443 449 0
444 449 0
445 449 0
446 449 0
-450 0
-451 449 -452 0
451 -449 -452 0
452 -449 -451 0
451 449 452 0
-452 0
443 453 0
444 453 0
445 453 0
446 453 0
-454 0
-455 453 -456 0
455 -453 -456 0
456 -453 -455 0
455 453 456 0
-456 0
444 457 0
445 457 0
446 457 0
-444 -445 -446 -457 0
-458 457 -459 0
458 -457 -459 0
459 -457 -458 0
458 457 459 0
-459 0
-460 457 -461 0
460 -457 -461 0
461 -457 -460 0
460 457 461 0
-461 0
-462 457 -463 0
462 -457 -463 0
463 -457 -462 0
462 457 463 0
-463 0
464 465 0
466 465 0
467 465 0
468 465 0
-469 0
-44 465 -470 0
44 -465 -470 0
470 -465 -44 0
44 465 470 0
-470 0
-471 465 -472 0
471 -465 -472 0
472 -465 -471 0
471 465 472 0
-472 0
-473 465 -474 0
473 -465 -474 0
474 -465 -473 0
473 465 474 0
-474 0
-475 465 -476 0
475 -465 -476 0
476 -465 -475 0
475 465 476 0
-476 0
477 478 0
479 478 0
480 478 0
-477 -479 -480 -478 0
-45 478 -481 0
45 -478 -481 0
481 -478 -45 0
45 478 481 0
-481 0
479 482 0
480 482 0
-479 -480 -482 0
-483 482 -484 0
483 -482 -484 0
484 -482 -483 0
483 482 484 0
-484 0
485 -480 0
480 -485 0
486 487 0
488 487 0
489 487 0
490 487 0
-491 0
-46 487 -492 0
46 -487 -492 0
492 -487 -46 0
46 487 492 0
-492 0
488 493 0
489 493 0
490 493 0
-488 -489 -490 -493 0
-494 493 -495 0
494 -493 -495 0
495 -493 -494 0
494 493 495 0
-495 0
489 496 0
490 496 0
-489 -490 -496 0
-497 496 -498 0
497 -496 -498 0
498 -496 -497 0
497 496 498 0
-498 0
499 -490 0
490 -499 0
500 501 0
502 501 0
-500 -502 -501 0
-47 501 -503 0
47 -501 -503 0
503 -501 -47 0
47 501 503 0
-503 0
504 -502 0
502 -504 0
505 506 0
507 506 0
508 506 0
-505 -507 -508 -506 0
-48 506 -509 0
48 -506 -509 0
509 -506 -48 0
48 506 509 0
-509 0
507 510 0
508 510 0
-507 -508 -510 0
-511 510 -512 0
511 -510 -512 0
512 -510 -511 0
511 510 512 0
-512 0
513 -508 0
508 -513 0
514 515 0
516 515 0
517 515 0
518 515 0
-519 0
-49 515 -520 0
49 -515 -520 0
520 -515 -49 0
49 515 520 0
-520 0
516 521 0
517 521 0
518 521 0
-516 -517 -518 -521 0
-522 521 -523 0
522 -521 -523 0
523 -521 -522 0
522 521 523 0
-523 0
517 524 0
518 524 0
-517 -518 -524 0
-525 524 -526 0
525 -524 -526 0
526 -524 -525 0
525 524 526 0
-526 0
527 -518 0
518 -527 0
528 529 0
530 529 0
531 529 0
532 529 0
-533 0
-50 529 -534 0
50 -529 -534 0
534 -529 -50 0
50 529 534 0
-534 0
-535 529 -536 0
535 -529 -536 0
536 -529 -535 0
535 529 536 0
-536 0
-537 529 -538 0
537 -529 -538 0
538 -529 -537 0
537 529 538 0
-538 0
-539 529 -540 0
539 -529 -540 0
540 -529 -539 0
539 529 540 0
-540 0
-51 541 -542 0
51 -541 -542 0
-51 -541 542 0
51 541 542 0
-542 0
-52 543 -544 0
52 -543 -544 0
-52 -543 544 0
52 543 544 0
-544 0
-53 545 -546 0
53 -545 -546 0
-53 -545 546 0
53 545 546 0
-546 0
-54 547 -548 0
54 -547 -548 0
-54 -547 548 0
54 547 548 0
-548 0
-55 549 -550 0
55 -549 -550 0
-55 -549 550 0
55 549 550 0
-550 0
-56 551 -552 0
56 -551 -552 0
-56 -551 552 0
56 551 552 0
-552 0
-57 553 -554 0
57 -553 -554 0
-57 -553 554 0
57 553 554 0
-554 0
-58 555 -556 0
58 -555 -556 0
-58 -555 556 0
58 555 556 0
-556 0
-59 557 -558 0
59 -557 -558 0
-59 -557 558 0
59 557 558 0
-558 0
-60 559 -560 0
60 -559 -560 0
-60 -559 560 0
60 559 560 0
-560 0
-61 561 -562 0
61 -561 -562 0
-61 -561 562 0
61 561 562 0
-562 0
-62 563 -564 0
62 -563 -564 0
-62 -563 564 0
62 563 564 0
-564 0
-63 565 -566 0
63 -565 -566 0
-63 -565 566 0
63 565 566 0
-566 0
-64 567 -568 0
64 -567 -568 0
-64 -567 568 0
64 567 568 0
-568 0
-65 569 -570 0
65 -569 -570 0
-65 -569 570 0
65 569 570 0
-570 0
-66 571 -572 0
66 -571 -572 0
-66 -571 572 0
66 571 572 0
-572 0
-67 573 -574 0
67 -573 -574 0
-67 -573 574 0
67 573 574 0
-574 0
-68 575 -576 0
68 -575 -576 0
-68 -575 576 0
68 575 576 0
-576 0
-69 577 -578 0
69 -577 -578 0
-69 -577 578 0
69 577 578 0
-578 0
-70 579 -580 0
70 -579 -580 0
-70 -579 580 0
70 579 580 0
-580 0
-71 581 -582 0
71 -581 -582 0
-71 -581 582 0
71 581 582 0
-582 0
-72 583 -584 0
72 -583 -584 0
-72 -583 584 0
72 583 584 0
-584 0
-73 585 -586 0
73 -585 -586 0
-73 -585 586 0
73 585 586 0
-586 0
-74 587 -588 0
74 -587 -588 0
-74 -587 588 0
74 587 588 0
-588 0
-75 589 -590 0
75 -589 -590 0
-75 -589 590 0
75 589 590 0
-590 0
-76 591 -592 0
76 -591 -592 0
-76 -591 592 0
76 591 592 0
-592 0
-78 593 -594 0
78 -593 -594 0
-78 -593 594 0
78 593 594 0
-594 0
-79 595 -596 0
79 -595 -596 0
-79 -595 596 0
79 595 596 0
-596 0
-86 597 -598 0
86 -597 -598 0
-86 -597 598 0
86 597 598 0
-598 0
-88 599 -600 0
88 -599 -600 0
-88 -599 600 0
88 599 600 0
-600 0
-89 601 -602 0
89 -601 -602 0
-89 -601 602 0
89 601 602 0
-602 0
-90 603 -604 0
90 -603 -604 0
-90 -603 604 0
90 603 604 0
-604 0
-91 605 -606 0
91 -605 -606 0
-91 -605 606 0
91 605 606 0
-606 0
-106 607 -608 0
106 -607 -608 0
-106 -607 608 0
106 607 608 0
-608 0
-108 609 -610 0
108 -609 -610 0
-108 -609 610 0
108 609 610 0
-610 0
-109 611 -612 0
109 -611 -612 0
-109 -611 612 0
109 611 612 0
-612 0
-110 613 -614 0
110 -613 -614 0
-110 -613 614 0
110 613 614 0
-614 0
-111 615 -616 0
111 -615 -616 0
-111 -615 616 0
111 615 616 0
-616 0
-112 617 -618 0
112 -617 -618 0
-112 -617 618 0
112 617 618 0
-618 0
-129 619 -620 0
129 -619 -620 0
-129 -619 620 0
129 619 620 0
-620 0
-131 621 -622 0
131 -621 -622 0
-131 -621 622 0
131 621 622 0
-622 0
-132 623 -624 0
132 -623 -624 0
-132 -623 624 0
132 623 624 0
-624 0
-133 625 -626 0
133 -625 -626 0
-133 -625 626 0
133 625 626 0
-626 0
-134 627 -628 0
134 -627 -628 0
-134 -627 628 0
134 627 628 0
-628 0
-135 629 -630 0
135 -629 -630 0
-135 -629 630 0
135 629 630 0
-630 0
-152 631 -632 0
152 -631 -632 0
-152 -631 632 0
152 631 632 0
-632 0
-154 633 -634 0
154 -633 -634 0
-154 -633 634 0
154 633 634 0
-634 0
-155 635 -636 0
155 -635 -636 0
-155 -635 636 0
155 635 636 0
-636 0
-156 637 -638 0
156 -637 -638 0
-156 -637 638 0
156 637 638 0
-638 0
-166 639 -640 0
166 -639 -640 0
-166 -639 640 0
166 639 640 0
-640 0
-168 641 -642 0
168 -641 -642 0
-168 -641 642 0
168 641 642 0
-642 0
-169 643 -644 0
169 -643 -644 0
-169 -643 644 0
169 643 644 0
-644 0
-170 645 -646 0
170 -645 -646 0
-170 -645 646 0
170 645 646 0
-646 0
-171 647 -648 0
171 -647 -648 0
-171 -647 648 0
171 647 648 0
-648 0
-172 649 -650 0
172 -649 -650 0
-172 -649 650 0
172 649 650 0
-650 0
-190 651 -652 0
190 -651 -652 0
-190 -651 652 0
190 651 652 0
-652 0
-192 653 -654 0
192 -653 -654 0
-192 -653 654 0
192 653 654 0
-654 0
-193 655 -656 0
193 -655 -656 0
-193 -655 656 0
193 655 656 0
-656 0
-194 657 -658 0
194 -657 -658 0
-194 -657 658 0
194 657 658 0
-658 0
-195 659 -660 0
195 -659 -660 0
-195 -659 660 0
195 659 660 0
-660 0
-209 661 -662 0
209 -661 -662 0
-209 -661 662 0
209 661 662 0
-662 0
-211 663 -664 0
211 -663 -664 0
-211 -663 664 0
211 663 664 0
-664 0
-212 665 -666 0
212 -665 -666 0
-212 -665 666 0
212 665 666 0
-666 0
-213 667 -668 0
213 -667 -668 0
-213 -667 668 0
213 667 668 0
-668 0
-214 669 -670 0
214 -669 -670 0
-214 -669 670 0
214 669 670 0
-670 0
-215 671 -672 0
215 -671 -672 0
-215 -671 672 0
215 671 672 0
-672 0
-233 673 -674 0
233 -673 -674 0
-233 -673 674 0
233 673 674 0
-674 0
-235 675 -676 0
235 -675 -676 0
-235 -675 676 0
235 675 676 0
-676 0
-236 677 -678 0
236 -677 -678 0
-236 -677 678 0
236 677 678 0
-678 0
-237 679 -680 0
237 -679 -680 0
-237 -679 680 0
237 679 680 0
-680 0
-238 681 -682 0
238 -681 -682 0
-238 -681 682 0
238 681 682 0
-682 0
-239 683 -684 0
239 -683 -684 0
-239 -683 684 0
239 683 684 0
-684 0
-240 685 -686 0
240 -685 -686 0
-240 -685 686 0
240 685 686 0
-686 0
-241 687 -688 0
241 -687 -688 0
-241 -687 688 0
241 687 688 0
-688 0
-266 689 -690 0
266 -689 -690 0
-266 -689 690 0
266 689 690 0
-690 0
-268 691 -692 0
268 -691 -692 0
-268 -691 692 0
268 691 692 0
-692 0
-269 693 -694 0
269 -693 -694 0
-269 -693 694 0
269 693 694 0
-694 0
-270 695 -696 0
270 -695 -696 0
-270 -695 696 0
270 695 696 0
-696 0
-271 697 -698 0
271 -697 -698 0
-271 -697 698 0
271 697 698 0
-698 0
-286 699 -700 0
286 -699 -700 0
-286 -699 700 0
286 699 700 0
-700 0
-288 701 -702 0
288 -701 -702 0
-288 -701 702 0
288 701 702 0
-702 0
-292 703 -704 0
292 -703 -704 0
-292 -703 704 0
292 703 704 0
-704 0
-294 705 -706 0
294 -705 -706 0
-294 -705 706 0
294 705 706 0
-706 0
-295 707 -708 0
295 -707 -708 0
-295 -707 708 0
295 707 708 0
-708 0
-296 709 -710 0
296 -709 -710 0
-296 -709 710 0
296 709 710 0
-710 0
-297 711 -712 0
297 -711 -712 0
-297 -711 712 0
297 711 712 0
-712 0
-311 713 -714 0
311 -713 -714 0
-311 -713 714 0
311 713 714 0
-714 0
-313 715 -716 0
313 -715 -716 0
-313 -715 716 0
313 715 716 0
-716 0
-314 717 -718 0
314 -717 -718 0
-314 -717 718 0
314 717 718 0
-718 0
-315 719 -720 0
315 -719 -720 0
-315 -719 720 0
315 719 720 0
-720 0
-316 721 -722 0
316 -721 -722 0
-316 -721 722 0
316 721 722 0
-722 0
-317 723 -724 0
317 -723 -724 0
-317 -723 724 0
317 723 724 0
-724 0
-335 725 -726 0
335 -725 -726 0
-335 -725 726 0
335 725 726 0
-726 0
-337 727 -728 0
337 -727 -728 0
-337 -727 728 0
337 727 728 0
-728 0
-338 729 -730 0
338 -729 -730 0
-338 -729 730 0
338 729 730 0
-730 0
-339 731 -732 0
339 -731 -732 0
-339 -731 732 0
339 731 732 0
-732 0
-340 733 -734 0
340 -733 -734 0
-340 -733 734 0
340 733 734 0
-734 0
-355 735 -736 0
355 -735 -736 0
-355 -735 736 0
355 735 736 0
-736 0
-357 737 -738 0
357 -737 -738 0
-357 -737 738 0
357 737 738 0
-738 0
-358 739 -740 0
358 -739 -740 0
-358 -739 740 0
358 739 740 0
-740 0
-359 741 -742 0
359 -741 -742 0
-359 -741 742 0
359 741 742 0
-742 0
-360 743 -744 0
360 -743 -744 0
-360 -743 744 0
360 743 744 0
-744 0
-361 745 -746 0
361 -745 -746 0
-361 -745 746 0
361 745 746 0
-746 0
-362 747 -748 0
362 -747 -748 0
-362 -747 748 0
362 747 748 0
-748 0
-384 749 -750 0
384 -749 -750 0
-384 -749 750 0
384 749 750 0
-750 0
-386 751 -752 0
386 -751 -752 0
-386 -751 752 0
386 751 752 0
-752 0
-387 753 -754 0
387 -753 -754 0
-387 -753 754 0
387 753 754 0
-754 0
-388 755 -756 0
388 -755 -756 0
-388 -755 756 0
388 755 756 0
-756 0
-389 757 -758 0
389 -757 -758 0
-389 -757 758 0
389 757 758 0
-758 0
-390 759 -760 0
390 -759 -760 0
-390 -759 760 0
390 759 760 0
-760 0
-391 761 -762 0
391 -761 -762 0
-391 -761 762 0
391 761 762 0
-762 0
-392 763 -764 0
392 -763 -764 0
-392 -763 764 0
392 763 764 0
-764 0
-417 765 -766 0
417 -765 -766 0
-417 -765 766 0
417 765 766 0
-766 0
-419 767 -768 0
419 -767 -768 0
-419 -767 768 0
419 767 768 0
-768 0
-420 769 -770 0
420 -769 -770 0
-420 -769 770 0
420 769 770 0
-770 0
-421 771 -772 0
421 -771 -772 0
-421 -771 772 0
421 771 772 0
-772 0
-422 773 -774 0
422 -773 -774 0
-422 -773 774 0
422 773 774 0
-774 0
-423 775 -776 0
423 -775 -776 0
-423 -775 776 0
423 775 776 0
-776 0
-440 777 -778 0
440 -777 -778 0
-440 -777 778 0
440 777 778 0
-778 0
-442 779 -780 0
442 -779 -780 0
-442 -779 780 0
442 779 780 0
-780 0
-443 781 -782 0
443 -781 -782 0
-443 -781 782 0
443 781 782 0
-782 0
-444 783 -784 0
444 -783 -784 0
-444 -783 784 0
444 783 784 0
-784 0
-445 785 -786 0
445 -785 -786 0
-445 -785 786 0
445 785 786 0
-786 0
-446 787 -788 0
446 -787 -788 0
-446 -787 788 0
446 787 788 0
-788 0
-464 789 -790 0
464 -789 -790 0
-464 -789 790 0
464 789 790 0
-790 0
-466 791 -792 0
466 -791 -792 0
-466 -791 792 0
466 791 792 0
-792 0
-467 793 -794 0
467 -793 -794 0
-467 -793 794 0
467 793 794 0
-794 0
-468 795 -796 0
468 -795 -796 0
-468 -795 796 0
468 795 796 0
-796 0
-477 797 -798 0
477 -797 -798 0
-477 -797 798 0
477 797 798 0
-798 0
-479 799 -800 0
479 -799 -800 0
-479 -799 800 0
479 799 800 0
-800 0
-480 801 -802 0
480 -801 -802 0
-480 -801 802 0
480 801 802 0
-802 0
-486 803 -804 0
486 -803 -804 0
-486 -803 804 0
486 803 804 0
-804 0
-488 805 -806 0
488 -805 -806 0
-488 -805 806 0
488 805 806 0
-806 0
-489 807 -808 0
489 -807 -808 0
-489 -807 808 0
489 807 808 0
-808 0
-490 809 -810 0
490 -809 -810 0
-490 -809 810 0
490 809 810 0
-810 0
-500 811 -812 0
500 -811 -812 0
-500 -811 812 0
500 811 812 0
-812 0
-502 813 -814 0
502 -813 -814 0
-502 -813 814 0
502 813 814 0
-814 0
-505 815 -816 0
505 -815 -816 0
-505 -815 816 0
505 815 816 0
-816 0
-507 817 -818 0
507 -817 -818 0
-507 -817 818 0
507 817 818 0
-818 0
-508 819 -820 0
508 -819 -820 0
-508 -819 820 0
508 819 820 0
-820 0
-514 821 -822 0
514 -821 -822 0
-514 -821 822 0
514 821 822 0
-822 0
-516 823 -824 0
516 -823 -824 0
-516 -823 824 0
516 823 824 0
-824 0
-517 825 -826 0
517 -825 -826 0
-517 -825 826 0
517 825 826 0
-826 0
-518 827 -828 0
518 -827 -828 0
-518 -827 828 0
518 827 828 0
-828 0
-528 829 -830 0
528 -829 -830 0
-528 -829 830 0
528 829 830 0
-830 0
-530 831 -832 0
530 -831 -832 0
-530 -831 832 0
530 831 832 0
-832 0
-531 833 -834 0
531 -833 -834 0
-531 -833 834 0
531 833 834 0
-834 0
-532 835 -836 0
532 -835 -836 0
-532 -835 836 0
532 835 836 0
-836 0
-837 -541 0
-837 -543 0
-837 -545 0
-837 -547 0
-837 -549 0
-837 -551 0
-837 -553 0
-837 -555 0
-837 -557 0
-837 -559 0
-837 -561 0
-837 -563 0
-837 -565 0
-837 -567 0
-837 -569 0
-837 -571 0
-837 -573 0
-837 -575 0
-837 -577 0
-837 -579 0
-837 -581 0
-837 -583 0
-837 -585 0
-837 -587 0
-837 -589 0
591 -837 0
593 -837 0
-837 -595 0
-837 -597 0
599 -837 0
601 -837 0
603 -837 0
-837 -605 0
-837 -607 0
-837 -609 0
611 -837 0
-837 -613 0
-837 -615 0
617 -837 0
619 -837 0
-837 -621 0
-837 -623 0
-837 -625 0
-837 -627 0
629 -837 0
-837 -631 0
-837 -633 0
635 -837 0
-837 -637 0
639 -837 0
-837 -641 0
-837 -643 0
645 -837 0
-837 -647 0
649 -837 0
651 -837 0
653 -837 0
-837 -655 0
657 -837 0
-837 -659 0
-837 -661 0
663 -837 0
-837 -665 0
667 -837 0
-837 -669 0
671 -837 0
-837 -673 0
-837 -675 0
-837 -677 0
679 -837 0
-837 -681 0
-837 -683 0
685 -837 0
-837 -687 0
689 -837 0
691 -837 0
-837 -693 0
-837 -695 0
697 -837 0
-837 -699 0
701 -837 0
-837 -703 0
705 -837 0
707 -837 0
709 -837 0
-837 -711 0
713 -837 0
-837 -715 0
-837 -717 0
719 -837 0
-837 -721 0
723 -837 0
725 -837 0
727 -837 0
729 -837 0
731 -837 0
-837 -733 0
-837 -735 0
-837 -737 0
-837 -739 0
741 -837 0
743 -837 0
-837 -745 0
-837 -747 0
-837 -749 0
-837 -751 0
-837 -753 0
755 -837 0
757 -837 0
759 -837 0
-837 -761 0
-837 -763 0
765 -837 0
-837 -767 0
-837 -769 0
-837 -771 0
773 -837 0
775 -837 0
777 -837 0
-837 -779 0
-837 -781 0
-837 -783 0
785 -837 0
787 -837 0
789 -837 0
791 -837 0
-837 -793 0
-837 -795 0
-837 -797 0
799 -837 0
-837 -801 0
803 -837 0
-837 -805 0
-837 -807 0
809 -837 0
-837 -811 0
813 -837 0
-837 -815 0
817 -837 0
-837 -819 0
821 -837 0
-837 -823 0
-837 -825 0
827 -837 0
829 -837 0
831 -837 0
833 -837 0
-837 -835 0
837 0
-838 0
-839 0
-840 0
-841 0
-842 0
-843 0
-844 0
-845 0
